p cnf 113 778
1 2 3 4 5 6 7 8 0
9 10 11 12 13 14 15 16 0
17 18 19 20 21 22 23 24 0
25 26 27 28 29 30 31 32 0
33 34 35 36 37 38 39 40 0
41 42 43 44 45 46 47 48 0
49 50 51 52 53 54 55 56 0
57 58 59 60 61 62 63 64 0
65 66 67 68 69 70 71 0
72 73 74 75 76 77 78 0
79 80 81 82 83 84 85 0
86 87 88 89 90 91 92 0
93 94 95 96 97 98 99 0
100 101 102 103 104 105 106 0
107 108 109 110 111 112 113 0
-1 -9 0
-2 -10 0
-3 -11 0
-4 -12 0
-5 -13 0
-6 -14 0
-7 -15 0
-8 -16 0
-1 -17 0
-2 -18 0
-3 -19 0
-4 -20 0
-5 -21 0
-6 -22 0
-7 -23 0
-8 -24 0
-1 -25 0
-2 -26 0
-3 -27 0
-4 -28 0
-5 -29 0
-6 -30 0
-7 -31 0
-8 -32 0
-1 -33 0
-2 -34 0
-3 -35 0
-4 -36 0
-5 -37 0
-6 -38 0
-7 -39 0
-8 -40 0
-1 -41 0
-2 -42 0
-3 -43 0
-4 -44 0
-5 -45 0
-6 -46 0
-7 -47 0
-8 -48 0
-1 -49 0
-2 -50 0
-3 -51 0
-4 -52 0
-5 -53 0
-6 -54 0
-7 -55 0
-8 -56 0
-1 -57 0
-2 -58 0
-3 -59 0
-4 -60 0
-5 -61 0
-6 -62 0
-7 -63 0
-8 -64 0
-9 -17 0
-10 -18 0
-11 -19 0
-12 -20 0
-13 -21 0
-14 -22 0
-15 -23 0
-16 -24 0
-9 -25 0
-10 -26 0
-11 -27 0
-12 -28 0
-13 -29 0
-14 -30 0
-15 -31 0
-16 -32 0
-9 -33 0
-10 -34 0
-11 -35 0
-12 -36 0
-13 -37 0
-14 -38 0
-15 -39 0
-16 -40 0
-9 -41 0
-10 -42 0
-11 -43 0
-12 -44 0
-13 -45 0
-14 -46 0
-15 -47 0
-16 -48 0
-9 -49 0
-10 -50 0
-11 -51 0
-12 -52 0
-13 -53 0
-14 -54 0
-15 -55 0
-16 -56 0
-9 -57 0
-10 -58 0
-11 -59 0
-12 -60 0
-13 -61 0
-14 -62 0
-15 -63 0
-16 -64 0
-17 -25 0
-18 -26 0
-19 -27 0
-20 -28 0
-21 -29 0
-22 -30 0
-23 -31 0
-24 -32 0
-17 -33 0
-18 -34 0
-19 -35 0
-20 -36 0
-21 -37 0
-22 -38 0
-23 -39 0
-24 -40 0
-17 -41 0
-18 -42 0
-19 -43 0
-20 -44 0
-21 -45 0
-22 -46 0
-23 -47 0
-24 -48 0
-17 -49 0
-18 -50 0
-19 -51 0
-20 -52 0
-21 -53 0
-22 -54 0
-23 -55 0
-24 -56 0
-17 -57 0
-18 -58 0
-19 -59 0
-20 -60 0
-21 -61 0
-22 -62 0
-23 -63 0
-24 -64 0
-25 -33 0
-26 -34 0
-27 -35 0
-28 -36 0
-29 -37 0
-30 -38 0
-31 -39 0
-32 -40 0
-25 -41 0
-26 -42 0
-27 -43 0
-28 -44 0
-29 -45 0
-30 -46 0
-31 -47 0
-32 -48 0
-25 -49 0
-26 -50 0
-27 -51 0
-28 -52 0
-29 -53 0
-30 -54 0
-31 -55 0
-32 -56 0
-25 -57 0
-26 -58 0
-27 -59 0
-28 -60 0
-29 -61 0
-30 -62 0
-31 -63 0
-32 -64 0
-33 -41 0
-34 -42 0
-35 -43 0
-36 -44 0
-37 -45 0
-38 -46 0
-39 -47 0
-40 -48 0
-33 -49 0
-34 -50 0
-35 -51 0
-36 -52 0
-37 -53 0
-38 -54 0
-39 -55 0
-40 -56 0
-33 -57 0
-34 -58 0
-35 -59 0
-36 -60 0
-37 -61 0
-38 -62 0
-39 -63 0
-40 -64 0
-41 -49 0
-42 -50 0
-43 -51 0
-44 -52 0
-45 -53 0
-46 -54 0
-47 -55 0
-48 -56 0
-41 -57 0
-42 -58 0
-43 -59 0
-44 -60 0
-45 -61 0
-46 -62 0
-47 -63 0
-48 -64 0
-49 -57 0
-50 -58 0
-51 -59 0
-52 -60 0
-53 -61 0
-54 -62 0
-55 -63 0
-56 -64 0
-65 -72 0
-66 -73 0
-67 -74 0
-68 -75 0
-69 -76 0
-70 -77 0
-71 -78 0
-65 -79 0
-66 -80 0
-67 -81 0
-68 -82 0
-69 -83 0
-70 -84 0
-71 -85 0
-65 -86 0
-66 -87 0
-67 -88 0
-68 -89 0
-69 -90 0
-70 -91 0
-71 -92 0
-65 -93 0
-66 -94 0
-67 -95 0
-68 -96 0
-69 -97 0
-70 -98 0
-71 -99 0
-65 -100 0
-66 -101 0
-67 -102 0
-68 -103 0
-69 -104 0
-70 -105 0
-71 -106 0
-65 -107 0
-66 -108 0
-67 -109 0
-68 -110 0
-69 -111 0
-70 -112 0
-71 -113 0
-72 -79 0
-73 -80 0
-74 -81 0
-75 -82 0
-76 -83 0
-77 -84 0
-78 -85 0
-72 -86 0
-73 -87 0
-74 -88 0
-75 -89 0
-76 -90 0
-77 -91 0
-78 -92 0
-72 -93 0
-73 -94 0
-74 -95 0
-75 -96 0
-76 -97 0
-77 -98 0
-78 -99 0
-72 -100 0
-73 -101 0
-74 -102 0
-75 -103 0
-76 -104 0
-77 -105 0
-78 -106 0
-72 -107 0
-73 -108 0
-74 -109 0
-75 -110 0
-76 -111 0
-77 -112 0
-78 -113 0
-79 -86 0
-80 -87 0
-81 -88 0
-82 -89 0
-83 -90 0
-84 -91 0
-85 -92 0
-79 -93 0
-80 -94 0
-81 -95 0
-82 -96 0
-83 -97 0
-84 -98 0
-85 -99 0
-79 -100 0
-80 -101 0
-81 -102 0
-82 -103 0
-83 -104 0
-84 -105 0
-85 -106 0
-79 -107 0
-80 -108 0
-81 -109 0
-82 -110 0
-83 -111 0
-84 -112 0
-85 -113 0
-86 -93 0
-87 -94 0
-88 -95 0
-89 -96 0
-90 -97 0
-91 -98 0
-92 -99 0
-86 -100 0
-87 -101 0
-88 -102 0
-89 -103 0
-90 -104 0
-91 -105 0
-92 -106 0
-86 -107 0
-87 -108 0
-88 -109 0
-89 -110 0
-90 -111 0
-91 -112 0
-92 -113 0
-93 -100 0
-94 -101 0
-95 -102 0
-96 -103 0
-97 -104 0
-98 -105 0
-99 -106 0
-93 -107 0
-94 -108 0
-95 -109 0
-96 -110 0
-97 -111 0
-98 -112 0
-99 -113 0
-100 -107 0
-101 -108 0
-102 -109 0
-103 -110 0
-104 -111 0
-105 -112 0
-106 -113 0
-1 -50 65 0
-1 -51 66 0
-1 -52 67 0
-1 -53 68 0
-1 -54 69 0
-1 -55 70 0
-1 -56 71 0
-2 -49 65 0
-2 -51 65 0
-2 -52 66 0
-2 -53 67 0
-2 -54 68 0
-2 -55 69 0
-2 -56 70 0
-3 -49 66 0
-3 -50 65 0
-3 -52 65 0
-3 -53 66 0
-3 -54 67 0
-3 -55 68 0
-3 -56 69 0
-4 -49 67 0
-4 -50 66 0
-4 -51 65 0
-4 -53 65 0
-4 -54 66 0
-4 -55 67 0
-4 -56 68 0
-5 -49 68 0
-5 -50 67 0
-5 -51 66 0
-5 -52 65 0
-5 -54 65 0
-5 -55 66 0
-5 -56 67 0
-6 -49 69 0
-6 -50 68 0
-6 -51 67 0
-6 -52 66 0
-6 -53 65 0
-6 -55 65 0
-6 -56 66 0
-7 -49 70 0
-7 -50 69 0
-7 -51 68 0
-7 -52 67 0
-7 -53 66 0
-7 -54 65 0
-7 -56 65 0
-8 -49 71 0
-8 -50 70 0
-8 -51 69 0
-8 -52 68 0
-8 -53 67 0
-8 -54 66 0
-8 -55 65 0
-1 -58 72 0
-1 -59 73 0
-1 -60 74 0
-1 -61 75 0
-1 -62 76 0
-1 -63 77 0
-1 -64 78 0
-2 -57 72 0
-2 -59 72 0
-2 -60 73 0
-2 -61 74 0
-2 -62 75 0
-2 -63 76 0
-2 -64 77 0
-3 -57 73 0
-3 -58 72 0
-3 -60 72 0
-3 -61 73 0
-3 -62 74 0
-3 -63 75 0
-3 -64 76 0
-4 -57 74 0
-4 -58 73 0
-4 -59 72 0
-4 -61 72 0
-4 -62 73 0
-4 -63 74 0
-4 -64 75 0
-5 -57 75 0
-5 -58 74 0
-5 -59 73 0
-5 -60 72 0
-5 -62 72 0
-5 -63 73 0
-5 -64 74 0
-6 -57 76 0
-6 -58 75 0
-6 -59 74 0
-6 -60 73 0
-6 -61 72 0
-6 -63 72 0
-6 -64 73 0
-7 -57 77 0
-7 -58 76 0
-7 -59 75 0
-7 -60 74 0
-7 -61 73 0
-7 -62 72 0
-7 -64 72 0
-8 -57 78 0
-8 -58 77 0
-8 -59 76 0
-8 -60 75 0
-8 -61 74 0
-8 -62 73 0
-8 -63 72 0
-9 -42 79 0
-9 -43 80 0
-9 -44 81 0
-9 -45 82 0
-9 -46 83 0
-9 -47 84 0
-9 -48 85 0
-10 -41 79 0
-10 -43 79 0
-10 -44 80 0
-10 -45 81 0
-10 -46 82 0
-10 -47 83 0
-10 -48 84 0
-11 -41 80 0
-11 -42 79 0
-11 -44 79 0
-11 -45 80 0
-11 -46 81 0
-11 -47 82 0
-11 -48 83 0
-12 -41 81 0
-12 -42 80 0
-12 -43 79 0
-12 -45 79 0
-12 -46 80 0
-12 -47 81 0
-12 -48 82 0
-13 -41 82 0
-13 -42 81 0
-13 -43 80 0
-13 -44 79 0
-13 -46 79 0
-13 -47 80 0
-13 -48 81 0
-14 -41 83 0
-14 -42 82 0
-14 -43 81 0
-14 -44 80 0
-14 -45 79 0
-14 -47 79 0
-14 -48 80 0
-15 -41 84 0
-15 -42 83 0
-15 -43 82 0
-15 -44 81 0
-15 -45 80 0
-15 -46 79 0
-15 -48 79 0
-16 -41 85 0
-16 -42 84 0
-16 -43 83 0
-16 -44 82 0
-16 -45 81 0
-16 -46 80 0
-16 -47 79 0
-17 -34 86 0
-17 -35 87 0
-17 -36 88 0
-17 -37 89 0
-17 -38 90 0
-17 -39 91 0
-17 -40 92 0
-18 -33 86 0
-18 -35 86 0
-18 -36 87 0
-18 -37 88 0
-18 -38 89 0
-18 -39 90 0
-18 -40 91 0
-19 -33 87 0
-19 -34 86 0
-19 -36 86 0
-19 -37 87 0
-19 -38 88 0
-19 -39 89 0
-19 -40 90 0
-20 -33 88 0
-20 -34 87 0
-20 -35 86 0
-20 -37 86 0
-20 -38 87 0
-20 -39 88 0
-20 -40 89 0
-21 -33 89 0
-21 -34 88 0
-21 -35 87 0
-21 -36 86 0
-21 -38 86 0
-21 -39 87 0
-21 -40 88 0
-22 -33 90 0
-22 -34 89 0
-22 -35 88 0
-22 -36 87 0
-22 -37 86 0
-22 -39 86 0
-22 -40 87 0
-23 -33 91 0
-23 -34 90 0
-23 -35 89 0
-23 -36 88 0
-23 -37 87 0
-23 -38 86 0
-23 -40 86 0
-24 -33 92 0
-24 -34 91 0
-24 -35 90 0
-24 -36 89 0
-24 -37 88 0
-24 -38 87 0
-24 -39 86 0
-25 -34 93 0
-25 -35 94 0
-25 -36 95 0
-25 -37 96 0
-25 -38 97 0
-25 -39 98 0
-25 -40 99 0
-26 -33 93 0
-26 -35 93 0
-26 -36 94 0
-26 -37 95 0
-26 -38 96 0
-26 -39 97 0
-26 -40 98 0
-27 -33 94 0
-27 -34 93 0
-27 -36 93 0
-27 -37 94 0
-27 -38 95 0
-27 -39 96 0
-27 -40 97 0
-28 -33 95 0
-28 -34 94 0
-28 -35 93 0
-28 -37 93 0
-28 -38 94 0
-28 -39 95 0
-28 -40 96 0
-29 -33 96 0
-29 -34 95 0
-29 -35 94 0
-29 -36 93 0
-29 -38 93 0
-29 -39 94 0
-29 -40 95 0
-30 -33 97 0
-30 -34 96 0
-30 -35 95 0
-30 -36 94 0
-30 -37 93 0
-30 -39 93 0
-30 -40 94 0
-31 -33 98 0
-31 -34 97 0
-31 -35 96 0
-31 -36 95 0
-31 -37 94 0
-31 -38 93 0
-31 -40 93 0
-32 -33 99 0
-32 -34 98 0
-32 -35 97 0
-32 -36 96 0
-32 -37 95 0
-32 -38 94 0
-32 -39 93 0
-33 -58 100 0
-33 -59 101 0
-33 -60 102 0
-33 -61 103 0
-33 -62 104 0
-33 -63 105 0
-33 -64 106 0
-34 -57 100 0
-34 -59 100 0
-34 -60 101 0
-34 -61 102 0
-34 -62 103 0
-34 -63 104 0
-34 -64 105 0
-35 -57 101 0
-35 -58 100 0
-35 -60 100 0
-35 -61 101 0
-35 -62 102 0
-35 -63 103 0
-35 -64 104 0
-36 -57 102 0
-36 -58 101 0
-36 -59 100 0
-36 -61 100 0
-36 -62 101 0
-36 -63 102 0
-36 -64 103 0
-37 -57 103 0
-37 -58 102 0
-37 -59 101 0
-37 -60 100 0
-37 -62 100 0
-37 -63 101 0
-37 -64 102 0
-38 -57 104 0
-38 -58 103 0
-38 -59 102 0
-38 -60 101 0
-38 -61 100 0
-38 -63 100 0
-38 -64 101 0
-39 -57 105 0
-39 -58 104 0
-39 -59 103 0
-39 -60 102 0
-39 -61 101 0
-39 -62 100 0
-39 -64 100 0
-40 -57 106 0
-40 -58 105 0
-40 -59 104 0
-40 -60 103 0
-40 -61 102 0
-40 -62 101 0
-40 -63 100 0
-41 -50 107 0
-41 -51 108 0
-41 -52 109 0
-41 -53 110 0
-41 -54 111 0
-41 -55 112 0
-41 -56 113 0
-42 -49 107 0
-42 -51 107 0
-42 -52 108 0
-42 -53 109 0
-42 -54 110 0
-42 -55 111 0
-42 -56 112 0
-43 -49 108 0
-43 -50 107 0
-43 -52 107 0
-43 -53 108 0
-43 -54 109 0
-43 -55 110 0
-43 -56 111 0
-44 -49 109 0
-44 -50 108 0
-44 -51 107 0
-44 -53 107 0
-44 -54 108 0
-44 -55 109 0
-44 -56 110 0
-45 -49 110 0
-45 -50 109 0
-45 -51 108 0
-45 -52 107 0
-45 -54 107 0
-45 -55 108 0
-45 -56 109 0
-46 -49 111 0
-46 -50 110 0
-46 -51 109 0
-46 -52 108 0
-46 -53 107 0
-46 -55 107 0
-46 -56 108 0
-47 -49 112 0
-47 -50 111 0
-47 -51 110 0
-47 -52 109 0
-47 -53 108 0
-47 -54 107 0
-47 -56 107 0
-48 -49 113 0
-48 -50 112 0
-48 -51 111 0
-48 -52 110 0
-48 -53 109 0
-48 -54 108 0
-48 -55 107 0
